outputs/case_268.model.txt
risk_assessment_compliant = True
audit_committee_management_included = True
business_regulations_defined = True
information_communication_compliant = True
audit_organization_planned = True
annual_audit_plan_prepared = True
internal_control_executed = True
internal_control_comprehensive_compliance = True
internal_control_compliance = True
internal_control_established = True
fhc_internal_control_executed = True
monitoring_compliant = True
regulations_revision_process_defined = True
internal_audit_duties_compliant = True
organization_rules_defined = True
subsidiary_control_defined = True
group_aml_ctf_plan_established = True
control_environment_compliant = True
internal_control_scope_compliant = True
internal_control_components_compliant = True
fhc_internal_control_established = True
audit_supervision_performed = True
salary_committee_management_included = True
penalty = False
control_activities_compliant = True
manuals_and_handbooks_defined = True